c 3 - XORSAT
p cnf 30 120
5 8 9 0
-5 -8 9 0
-5 8 -9 0
5 -8 -9 0
-6 -24 -26 0
-6 24 26 0
6 -24 26 0
6 24 -26 0
-17 -22 -27 0
-17 22 27 0
17 -22 27 0
17 22 -27 0
-9 -14 -28 0
-9 14 28 0
9 -14 28 0
9 14 -28 0
-23 -28 -29 0
-23 28 29 0
23 -28 29 0
23 28 -29 0
-13 -16 -29 0
-13 16 29 0
13 -16 29 0
13 16 -29 0
-3 -20 -27 0
-3 20 27 0
3 -20 27 0
3 20 -27 0
-15 -17 -21 0
-15 17 21 0
15 -17 21 0
15 17 -21 0
-1 -11 -13 0
-1 11 13 0
1 -11 13 0
1 11 -13 0
-15 -11 -17 0
-15 11 17 0
15 -11 17 0
15 11 -17 0
8 10 22 0
-8 -10 22 0
-8 10 -22 0
8 -10 -22 0
-2 -12 -25 0
-2 12 25 0
2 -12 25 0
2 12 -25 0
-24 -26 -30 0
-24 26 30 0
24 -26 30 0
24 26 -30 0
-18 -21 -30 0
-18 21 30 0
18 -21 30 0
18 21 -30 0
6 24 27 0
-6 -24 27 0
-6 24 -27 0
6 -24 -27 0
-3 -13 -14 0
-3 13 14 0
3 -13 14 0
3 13 -14 0
-7 -16 -23 0
-7 16 23 0
7 -16 23 0
7 16 -23 0
1 4 7 0
-1 -4 7 0
-1 4 -7 0
1 -4 -7 0
-6 -10 -28 0
-6 10 28 0
6 -10 28 0
6 10 -28 0
-5 -16 -19 0
-5 16 19 0
5 -16 19 0
5 16 -19 0
9 10 20 0
-9 -10 20 0
-9 10 -20 0
9 -10 -20 0
-2 -3 -7 0
-2 3 7 0
2 -3 7 0
2 3 -7 0
-19 -23 -25 0
-19 23 25 0
19 -23 25 0
19 23 -25 0
25 29 30 0
-25 -29 30 0
-25 29 -30 0
25 -29 -30 0
-2 -4 -5 0
-2 4 5 0
2 -4 5 0
2 4 -5 0
18 15 22 0
-18 -15 22 0
-18 15 -22 0
18 -15 -22 0
8 11 20 0
-8 -11 20 0
-8 11 -20 0
8 -11 -20 0
-4 -12 -19 0
-4 12 19 0
4 -12 19 0
4 12 -19 0
-14 -18 -21 0
-14 18 21 0
14 -18 21 0
14 18 -21 0
-1 -12 -26 0
-1 12 26 0
1 -12 26 0
1 12 -26 0
